instances/in_30_15_9_3.lp
#const n = 30.
#const k = 15.
#const h = 9.
tile(1,15,8).
tile(2,5,6).
tile(3,1,12).
tile(4,6,8).
tile(5,11,15).
tile(6,10,14).
tile(7,8,5).
tile(8,7,10).
tile(9,13,9).
tile(10,11,8).
tile(11,12,8).
tile(12,9,7).
tile(13,2,15).
tile(14,15,15).
tile(15,9,4).
tile(16,6,15).
tile(17,8,11).
tile(18,12,14).
tile(19,1,6).
tile(20,15,1).
tile(21,8,5).
tile(22,9,4).
tile(23,8,6).
tile(24,11,13).
tile(25,10,13).
tile(26,11,4).
tile(27,10,12).
tile(28,9,8).
tile(29,4,14).
tile(30,8,4).
