minizinc/input/in_30_15_9_3.dzn
n = 30;
k = 15;
h = 9;
tiles = array2d(1..n, 1..2,
[ 15,8
, 5,6
, 1,12
, 6,8
, 11,15
, 10,14
, 8,5
, 7,10
, 13,9
, 11,8
, 12,8
, 9,7
, 2,15
, 15,15
, 9,4
, 6,15
, 8,11
, 12,14
, 1,6
, 15,1
, 8,5
, 9,4
, 8,6
, 11,13
, 10,13
, 11,4
, 10,12
, 9,8
, 4,14
, 8,4
]);